start_domain = 2;
target_domain = 15;
vnflist_size = 3;
vnflist = [10,3,10];
vnf_arcs = [|1,2|2,3|];
proximity_to_source = [0,0,0];
proximity_to_destination = [0,0,0];
n_domain_constraints = 1;
domain_constraints = [|10,3,1,1|];
